87 49 22 90 18 65 27 15 63 41 98 9 79 35 26 7 11 54 88 61 30 20 99 83 80 3 76 67 95 16 78 93 59 97 2 10 75 32 96 28 53 6 1 36 46 8 55 62 86 84 13 69 50 17 74 91 14 68 34 33 60 58 81 0 72 44 66 23 43 19 21 39 47 24 92 51 42 82 73 12 89 56 31 29 38 52 85 45 94 48 70 64 40 25 5 4 71 77 57 37